; tortoise-orm :: corpus-study/repo_src/tortoise-orm/examples/complex_filtering.py :: EVENT 'run::event_first' :: naive encoding (verdict: unsat)
; Generated by snf-pipeline (encoder.py) -- run with any
; SMT-LIB2-compliant solver, e.g. `z3 tortoise-orm__corpus-study_repo_src_tortoise-orm_examples_complex_filtering.py__run__event_first__naive.smt2`
; benchmark generated from python API
(set-info :status unknown)
(assert
 false)
(check-sat)
